% Logging successfully configured
%%%mzn-stat: initTime=0.004320315
%%%mzn-stat: objective=903
%%%mzn-stat: nodes=322
%%%mzn-stat: restarts=0
%%%mzn-stat: peakDepth=160
%%%mzn-stat: solveTime=0.053987102
%%%mzn-stat: variables=451
%%%mzn-stat: propagators=277
%%%mzn-stat: failures=132
%%%mzn-stat: propagations=6847
%%%mzn-stat: nogoods=132
%%%mzn-stat: numAtomicConstraintsPropagated=0
%%%mzn-stat: allDifferentNumber1PropagationsTotal=682
%%%mzn-stat: allDifferentNumber1PropagationsThatFoundConflict=11
%%%mzn-stat: allDifferentNumber1PropagationsThatPruned=457
%%%mzn-stat: allDifferentNumber1TotalValuesPruned=1964
%%%mzn-stat: allDifferentNumber1TotalHallSetSizeConflict=61
%%%mzn-stat: allDifferentNumber1NumberOfConflicts=11
%%%mzn-stat: allDifferentNumber1MaxHallSetSizeConflict=27
%%%mzn-stat: allDifferentNumber1TotalPruningHallSetSize=10607
%%%mzn-stat: allDifferentNumber1NumberOfPruningExplanations=1964
%%%mzn-stat: allDifferentNumber1MaxPruningHallSetSize=38
%%%mzn-stat: allDifferentNumber1TotalFixedEdgesAtConflict=325
%%%mzn-stat: allDifferentNumber1TotalVarsInvolvedInPruning=1607
%%%mzn-stat: allDifferentNumber1MaxValuesPrunedFromSingleVar=3
%%%mzn-stat: allDifferentNumber1TotalSccSizeAtPruning=3937
%%%mzn-stat: allDifferentNumber1NumberOfSccPruningCalls=457
%%%mzn-stat: circuitNumber2PropagationsThatFoundConflict=115
%%%mzn-stat: circuitNumber2TotalFixedEdgesAtConflict=4408
%%%mzn-stat: circuitNumber2NumberOfConflicts=115
%%%mzn-stat: circuitNumber2PropagationsThatPruned=202
%%%mzn-stat: circuitNumber2PropagationsTotal=471
%%%mzn-stat: AverageConflictSize=21.34090909090909
%%%mzn-stat: NumUnitNogoodsLearned=0
%%%mzn-stat: AverageLearnedNogoodLength=11.984848484848484
%%%mzn-stat: AverageBacktrackAmount=0
%%%mzn-stat: AverageLbd=7.090909090909091
%%%mzn-stat: 2AutonomousSearchNumBackupCalled=149
%%%mzn-stat: 2AutonomousSearchNumPredicatesRemoved=0
%%%mzn-stat: 2AutonomousSearchNumCalls=150
%%%mzn-stat: 2AutonomousSearchNumPredicatesAdded=2228
%%%mzn-stat: 2AutonomousSearchAverageSizeOfHeap=14.853333333333333
%%%mzn-stat: 2AutonomousSearchNumAssignedPredicatesEncountered=2228
%%%mzn-stat-end
maxleg = 903;
succ = array1d(1..50,[2, 15, 12, 9, 19, 40, 45, 47, 35, 31, 18, 17, 4, 34, 25, 8, 30, 27, 46, 16, 33, 26, 38, 39, 10, 20, 42, 24, 13, 28, 22, 41, 36, 5, 14, 32, 21, 11, 6, 43, 48, 29, 44, 50, 23, 1, 49, 3, 37, 7]);
% time elapsed: 0.64 s
----------
%%%mzn-stat: initTime=0.004320315
%%%mzn-stat: objective=666
%%%mzn-stat: nodes=5527
%%%mzn-stat: restarts=0
%%%mzn-stat: peakDepth=160
%%%mzn-stat: solveTime=1.823101493
%%%mzn-stat: variables=451
%%%mzn-stat: propagators=277
%%%mzn-stat: failures=3895
%%%mzn-stat: propagations=198423
%%%mzn-stat: nogoods=3895
%%%mzn-stat: numAtomicConstraintsPropagated=0
%%%mzn-stat: allDifferentNumber1PropagationsTotal=21102
%%%mzn-stat: allDifferentNumber1PropagationsThatFoundConflict=195
%%%mzn-stat: allDifferentNumber1PropagationsThatPruned=14266
%%%mzn-stat: allDifferentNumber1TotalValuesPruned=55968
%%%mzn-stat: allDifferentNumber1TotalHallSetSizeConflict=1742
%%%mzn-stat: allDifferentNumber1NumberOfConflicts=195
%%%mzn-stat: allDifferentNumber1MaxHallSetSizeConflict=31
%%%mzn-stat: allDifferentNumber1TotalPruningHallSetSize=246848
%%%mzn-stat: allDifferentNumber1NumberOfPruningExplanations=55968
%%%mzn-stat: allDifferentNumber1MaxPruningHallSetSize=47
%%%mzn-stat: allDifferentNumber1TotalFixedEdgesAtConflict=5024
%%%mzn-stat: allDifferentNumber1TotalVarsInvolvedInPruning=46709
%%%mzn-stat: allDifferentNumber1MaxValuesPrunedFromSingleVar=4
%%%mzn-stat: allDifferentNumber1TotalSccSizeAtPruning=101394
%%%mzn-stat: allDifferentNumber1NumberOfSccPruningCalls=14266
%%%mzn-stat: circuitNumber2PropagationsThatFoundConflict=3578
%%%mzn-stat: circuitNumber2TotalFixedEdgesAtConflict=149020
%%%mzn-stat: circuitNumber2NumberOfConflicts=3578
%%%mzn-stat: circuitNumber2PropagationsThatPruned=4944
%%%mzn-stat: circuitNumber2PropagationsTotal=14221
%%%mzn-stat: AverageConflictSize=30.921437740693197
%%%mzn-stat: NumUnitNogoodsLearned=0
%%%mzn-stat: AverageLearnedNogoodLength=16.08780487804878
%%%mzn-stat: AverageBacktrackAmount=0
%%%mzn-stat: AverageLbd=7.474967907573813
%%%mzn-stat: 2AutonomousSearchNumBackupCalled=289
%%%mzn-stat: 2AutonomousSearchNumPredicatesRemoved=0
%%%mzn-stat: 2AutonomousSearchNumCalls=291
%%%mzn-stat: 2AutonomousSearchNumPredicatesAdded=5058
%%%mzn-stat: 2AutonomousSearchAverageSizeOfHeap=17.553264604810998
%%%mzn-stat: 2AutonomousSearchNumAssignedPredicatesEncountered=5108
%%%mzn-stat-end
maxleg = 666;
succ = array1d(1..50,[2, 36, 12, 9, 34, 39, 44, 16, 19, 22, 18, 17, 4, 50, 25, 26, 30, 27, 46, 15, 37, 31, 38, 41, 10, 20, 42, 24, 13, 28, 23, 1, 21, 35, 14, 33, 47, 11, 48, 6, 32, 29, 40, 43, 7, 5, 49, 3, 8, 45]);
% time elapsed: 2.40 s
----------
==========
% time elapsed: 3.64 s
%%%mzn-stat: initTime=0.004320315
%%%mzn-stat: objective=666
%%%mzn-stat: nodes=10188
%%%mzn-stat: restarts=0
%%%mzn-stat: peakDepth=160
%%%mzn-stat: solveTime=3.059426829
%%%mzn-stat: variables=451
%%%mzn-stat: propagators=277
%%%mzn-stat: failures=6626
%%%mzn-stat: propagations=314984
%%%mzn-stat: nogoods=6626
%%%mzn-stat: numAtomicConstraintsPropagated=0
%%%mzn-stat: allDifferentNumber1PropagationsTotal=36200
%%%mzn-stat: allDifferentNumber1PropagationsThatFoundConflict=257
%%%mzn-stat: allDifferentNumber1PropagationsThatPruned=23791
%%%mzn-stat: allDifferentNumber1TotalValuesPruned=82403
%%%mzn-stat: allDifferentNumber1TotalHallSetSizeConflict=2051
%%%mzn-stat: allDifferentNumber1NumberOfConflicts=257
%%%mzn-stat: allDifferentNumber1MaxHallSetSizeConflict=31
%%%mzn-stat: allDifferentNumber1TotalPruningHallSetSize=316548
%%%mzn-stat: allDifferentNumber1NumberOfPruningExplanations=82403
%%%mzn-stat: allDifferentNumber1MaxPruningHallSetSize=48
%%%mzn-stat: allDifferentNumber1TotalFixedEdgesAtConflict=6423
%%%mzn-stat: allDifferentNumber1TotalVarsInvolvedInPruning=70385
%%%mzn-stat: allDifferentNumber1MaxValuesPrunedFromSingleVar=4
%%%mzn-stat: allDifferentNumber1TotalSccSizeAtPruning=138895
%%%mzn-stat: allDifferentNumber1NumberOfSccPruningCalls=23791
%%%mzn-stat: circuitNumber2PropagationsThatFoundConflict=6119
%%%mzn-stat: circuitNumber2TotalFixedEdgesAtConflict=262577
%%%mzn-stat: circuitNumber2NumberOfConflicts=6119
%%%mzn-stat: circuitNumber2PropagationsThatPruned=7339
%%%mzn-stat: circuitNumber2PropagationsTotal=24058
%%%mzn-stat: AverageConflictSize=33.25158466646544
%%%mzn-stat: NumUnitNogoodsLearned=1
%%%mzn-stat: AverageLearnedNogoodLength=15.230908542106851
%%%mzn-stat: AverageBacktrackAmount=0
%%%mzn-stat: AverageLbd=7.148505885904014
%%%mzn-stat: 2AutonomousSearchNumBackupCalled=289
%%%mzn-stat: 2AutonomousSearchNumPredicatesRemoved=0
%%%mzn-stat: 2AutonomousSearchNumCalls=291
%%%mzn-stat: 2AutonomousSearchNumPredicatesAdded=8010
%%%mzn-stat: 2AutonomousSearchAverageSizeOfHeap=17.553264604810998
%%%mzn-stat: 2AutonomousSearchNumAssignedPredicatesEncountered=5108
%%%mzn-stat-end
